min: c;

c = 3.46522315873267 * u4_t1_h1 + 3.26897817248394 * u4_t1_h2 + 3.20507637992252 * u4_t1_h3 + 3.60235883246768 * u4_t1_h4 + 3.60235883246768 * u4_t10_h4 + 3.27766864644063 * u4_t1_h5 + 3.27766864644063 * u4_t10_h5 + 3.45853523993201 * u4_t1_h6 + 3.45853523993201 * u4_t10_h6 + 3.60424152515643 * u4_t1_h7 + 3.60424152515643 * u4_t10_h7 + 4.88717555368985 * u4_t1_h8 + 4.88717555368985 * u4_t9_h8 + 4.88717555368985 * u4_t10_h8 + 5.02990294765473 * u4_t9_h9 + 5.02990294765473 * u4_t10_h9 + 5.88009999402144 * u4_t9_h10 + 5.88009999402144 * u4_t10_h10 + 3.74246036431291 * u4_t2_h11 + 3.74246036431291 * u4_t4_h11 + 3.74246036431291 * u4_t9_h11 + 3.74246036431291 * u4_t10_h11 + 6.17543934674761 * u4_t2_h12 + 6.17543934674761 * u4_t3_h12 + 6.17543934674761 * u4_t4_h12 + 6.17543934674761 * u4_t8_h12 + 6.17543934674761 * u4_t9_h12 + 6.17543934674761 * u4_t10_h12 + 4.84001282734694 * u4_t2_h13 + 4.84001282734694 * u4_t3_h13 + 4.84001282734694 * u4_t4_h13 + 4.84001282734694 * u4_t8_h13 + 4.84001282734694 * u4_t9_h13 + 5.48966893798375 * u4_t2_h14 + 5.48966893798375 * u4_t3_h14 + 5.48966893798375 * u4_t4_h14 + 5.48966893798375 * u4_t8_h14 + 5.48966893798375 * u4_t9_h14 + 5.89805771643936 * u4_t2_h15 + 5.89805771643936 * u4_t3_h15 + 5.89805771643936 * u4_t4_h15 + 5.89805771643936 * u4_t8_h15 + 5.89805771643936 * u4_t9_h15 + 6.3748372064142 * u4_t2_h16 + 6.3748372064142 * u4_t3_h16 + 6.3748372064142 * u4_t4_h16 + 6.3748372064142 * u4_t5_h16 + 6.3748372064142 * u4_t8_h16 + 6.3748372064142 * u4_t9_h16 + 6.56311737815061 * u4_t2_h17 + 6.56311737815061 * u4_t3_h17 + 6.56311737815061 * u4_t5_h17 + 6.56311737815061 * u4_t8_h17 + 6.56311737815061 * u4_t9_h17 + 6.82191734940292 * u4_t2_h18 + 6.82191734940292 * u4_t3_h18 + 6.82191734940292 * u4_t5_h18 + 6.82191734940292 * u4_t8_h18 + 6.82191734940292 * u4_t9_h18 + 5.98934189677075 * u4_t2_h19 + 5.98934189677075 * u4_t3_h19 + 5.98934189677075 * u4_t6_h19 + 5.98934189677075 * u4_t8_h19 + 5.98934189677075 * u4_t9_h19 + 5.22845560362999 * u4_t2_h20 + 5.22845560362999 * u4_t6_h20 + 5.22845560362999 * u4_t9_h20 + 4.93321541538386 * u4_t6_h21 + 6.01538625271993 * u4_t6_h22 + 6.01538625271993 * u4_t7_h22 + 5.57847013273712 * u4_t6_h23 + 5.57847013273712 * u4_t7_h23;
0 <= u4_t1_h1 <= 1;
0 <= u4_t1_h2 <= 1;
0 <= u4_t1_h3 <= 1;
0 <= u4_t1_h4 <= 1;
0 <= u4_t1_h5 <= 1;
0 <= u4_t1_h6 <= 1;
0 <= u4_t1_h7 <= 1;
0 <= u4_t1_h8 <= 1;
u4_t1_h1 + u4_t1_h2 + u4_t1_h3 + u4_t1_h4 + u4_t1_h5 + u4_t1_h6 + u4_t1_h7 + u4_t1_h8 = 1;
0 <= u4_t2_h11 <= 1;
0 <= u4_t2_h12 <= 1;
0 <= u4_t2_h13 <= 1;
0 <= u4_t2_h14 <= 1;
0 <= u4_t2_h15 <= 1;
0 <= u4_t2_h16 <= 1;
0 <= u4_t2_h17 <= 1;
0 <= u4_t2_h18 <= 1;
0 <= u4_t2_h19 <= 1;
0 <= u4_t2_h20 <= 1;
u4_t2_h11 + u4_t2_h12 + u4_t2_h13 + u4_t2_h14 + u4_t2_h15 + u4_t2_h16 + u4_t2_h17 + u4_t2_h18 + u4_t2_h19 + u4_t2_h20 = 2;
0 <= u4_t3_h12 <= 1;
0 <= u4_t3_h13 <= 1;
0 <= u4_t3_h14 <= 1;
0 <= u4_t3_h15 <= 1;
0 <= u4_t3_h16 <= 1;
0 <= u4_t3_h17 <= 1;
0 <= u4_t3_h18 <= 1;
0 <= u4_t3_h19 <= 1;
u4_t3_h12 + u4_t3_h13 + u4_t3_h14 + u4_t3_h15 + u4_t3_h16 + u4_t3_h17 + u4_t3_h18 + u4_t3_h19 = 3;
0 <= u4_t4_h11 <= 1;
0 <= u4_t4_h12 <= 1;
0 <= u4_t4_h13 <= 1;
0 <= u4_t4_h14 <= 1;
0 <= u4_t4_h15 <= 1;
0 <= u4_t4_h16 <= 1;
u4_t4_h11 + u4_t4_h12 + u4_t4_h13 + u4_t4_h14 + u4_t4_h15 + u4_t4_h16 = 3;
0 <= u4_t5_h16 <= 1;
0 <= u4_t5_h17 <= 1;
0 <= u4_t5_h18 <= 1;
u4_t5_h16 + u4_t5_h17 + u4_t5_h18 = 1;
0 <= u4_t6_h19 <= 1;
0 <= u4_t6_h20 <= 1;
0 <= u4_t6_h21 <= 1;
0 <= u4_t6_h22 <= 1;
0 <= u4_t6_h23 <= 1;
u4_t6_h19 + u4_t6_h20 + u4_t6_h21 + u4_t6_h22 + u4_t6_h23 = 3;
0 <= u4_t7_h22 <= 1;
0 <= u4_t7_h23 <= 1;
u4_t7_h22 + u4_t7_h23 = 1;
0 <= u4_t8_h12 <= 1;
0 <= u4_t8_h13 <= 1;
0 <= u4_t8_h14 <= 1;
0 <= u4_t8_h15 <= 1;
0 <= u4_t8_h16 <= 1;
0 <= u4_t8_h17 <= 1;
0 <= u4_t8_h18 <= 1;
0 <= u4_t8_h19 <= 1;
u4_t8_h12 + u4_t8_h13 + u4_t8_h14 + u4_t8_h15 + u4_t8_h16 + u4_t8_h17 + u4_t8_h18 + u4_t8_h19 = 2;
0 <= u4_t9_h8 <= 1;
0 <= u4_t9_h9 <= 1;
0 <= u4_t9_h10 <= 1;
0 <= u4_t9_h11 <= 1;
0 <= u4_t9_h12 <= 1;
0 <= u4_t9_h13 <= 1;
0 <= u4_t9_h14 <= 1;
0 <= u4_t9_h15 <= 1;
0 <= u4_t9_h16 <= 1;
0 <= u4_t9_h17 <= 1;
0 <= u4_t9_h18 <= 1;
0 <= u4_t9_h19 <= 1;
0 <= u4_t9_h20 <= 1;
u4_t9_h8 + u4_t9_h9 + u4_t9_h10 + u4_t9_h11 + u4_t9_h12 + u4_t9_h13 + u4_t9_h14 + u4_t9_h15 + u4_t9_h16 + u4_t9_h17 + u4_t9_h18 + u4_t9_h19 + u4_t9_h20 = 2;
0 <= u4_t10_h4 <= 1;
0 <= u4_t10_h5 <= 1;
0 <= u4_t10_h6 <= 1;
0 <= u4_t10_h7 <= 1;
0 <= u4_t10_h8 <= 1;
0 <= u4_t10_h9 <= 1;
0 <= u4_t10_h10 <= 1;
0 <= u4_t10_h11 <= 1;
0 <= u4_t10_h12 <= 1;
u4_t10_h4 + u4_t10_h5 + u4_t10_h6 + u4_t10_h7 + u4_t10_h8 + u4_t10_h9 + u4_t10_h10 + u4_t10_h11 + u4_t10_h12 = 2;
